p cnf 174 705
-1 0
-1 -2 -3 -4 -5 0
-1 -6 -7 -8 -9 0
-10 0
11 0
12 0
-13 0
-2 -10 -16 0
2 16 0
10 16 0
3 11 17 0
-3 -17 0
-11 -17 0
3 -11 -18 0
-3 11 -18 0
3 11 18 0
-3 -11 18 0
-16 18 19 0
-18 -19 0
16 -19 0
-15 17 19 0
15 -17 0
15 -19 0
4 12 20 0
-4 -20 0
-12 -20 0
4 -12 -21 0
-4 12 -21 0
4 12 21 0
-4 -12 21 0
-15 21 22 0
-21 -22 0
15 -22 0
-14 20 22 0
14 -20 0
14 -22 0
5 -13 -23 0
-5 13 -23 0
5 13 23 0
-5 -13 23 0
-14 23 24 0
-23 -24 0
14 -24 0
-5 -13 25 0
5 -25 0
13 -25 0
-1 24 25 0
1 -25 0
1 -24 0
26 0
27 0
28 0
-29 0
2 -26 -32 0
26 32 0
-2 32 0
-3 27 33 0
-27 -33 0
3 -33 0
3 27 -34 0
-3 -27 -34 0
-3 27 34 0
3 -27 34 0
-32 34 35 0
-34 -35 0
32 -35 0
-31 33 35 0
31 -33 0
31 -35 0
-4 28 36 0
-28 -36 0
4 -36 0
4 28 -37 0
-4 -28 -37 0
-4 28 37 0
4 -28 37 0
-31 37 38 0
-37 -38 0
31 -38 0
-30 36 38 0
30 -36 0
30 -38 0
5 29 -39 0
-5 -29 -39 0
-5 29 39 0
5 -29 39 0
-30 39 40 0
-39 -40 0
30 -40 0
5 -29 41 0
29 -41 0
-5 -41 0
-1 40 41 0
1 -41 0
1 -40 0
-6 -10 -44 0
6 44 0
10 44 0
7 11 45 0
-7 -45 0
-11 -45 0
7 -11 -46 0
-7 11 -46 0
7 11 46 0
-7 -11 46 0
-44 46 47 0
-46 -47 0
44 -47 0
-43 45 47 0
43 -45 0
43 -47 0
8 12 48 0
-8 -48 0
-12 -48 0
8 -12 -49 0
-8 12 -49 0
8 12 49 0
-8 -12 49 0
-43 49 50 0
-49 -50 0
43 -50 0
-42 48 50 0
42 -48 0
42 -50 0
9 -13 -51 0
-9 13 -51 0
9 13 51 0
-9 -13 51 0
-42 51 52 0
-51 -52 0
42 -52 0
-9 -13 53 0
9 -53 0
13 -53 0
-1 52 53 0
1 -53 0
1 -52 0
6 -26 -56 0
26 56 0
-6 56 0
-7 27 57 0
-27 -57 0
7 -57 0
7 27 -58 0
-7 -27 -58 0
-7 27 58 0
7 -27 58 0
-56 58 59 0
-58 -59 0
56 -59 0
-55 57 59 0
55 -57 0
55 -59 0
-8 28 60 0
-28 -60 0
8 -60 0
8 28 -61 0
-8 -28 -61 0
-8 28 61 0
8 -28 61 0
-55 61 62 0
-61 -62 0
55 -62 0
-54 60 62 0
54 -60 0
54 -62 0
9 29 -63 0
-9 -29 -63 0
-9 29 63 0
9 -29 63 0
-54 63 64 0
-63 -64 0
54 -64 0
9 -29 65 0
29 -65 0
-9 -65 0
-1 64 65 0
1 -65 0
1 -64 0
70 0
2 -6 -66 70 0
2 6 -66 -70 0
2 6 66 70 0
2 -6 66 -70 0
-2 -6 66 70 0
-2 6 66 -70 0
-2 6 -66 70 0
-2 -6 -66 -70 0
2 -6 -71 0
2 70 -71 0
2 6 -70 71 0
-2 -6 70 -71 0
-2 6 71 0
-2 -70 71 0
3 -7 -67 71 0
3 7 -67 -71 0
3 7 67 71 0
3 -7 67 -71 0
-3 -7 67 71 0
-3 7 67 -71 0
-3 7 -67 71 0
-3 -7 -67 -71 0
3 -7 -72 0
3 71 -72 0
3 7 -71 72 0
-3 -7 71 -72 0
-3 7 72 0
-3 -71 72 0
4 -8 -68 72 0
4 8 -68 -72 0
4 8 68 72 0
4 -8 68 -72 0
-4 -8 68 72 0
-4 8 68 -72 0
-4 8 -68 72 0
-4 -8 -68 -72 0
4 -8 -73 0
4 72 -73 0
4 8 -72 73 0
-4 -8 72 -73 0
-4 8 73 0
-4 -72 73 0
5 -9 -69 73 0
5 9 -69 -73 0
5 9 69 73 0
5 -9 69 -73 0
-5 -9 69 73 0
-5 9 69 -73 0
-5 9 -69 73 0
-5 -9 -69 -73 0
74 0
-75 0
-76 0
-77 0
1 -66 74 -78 0
-1 -66 -74 -78 0
1 -66 -74 78 0
-1 -66 74 78 0
1 66 74 78 0
-1 66 -74 78 0
1 66 -74 -78 0
-1 66 74 -78 0
-66 74 -82 0
1 -66 -82 0
-1 -66 -74 82 0
1 66 74 -82 0
66 -74 82 0
-1 66 82 0
-67 75 -79 82 0
-67 -75 -79 -82 0
-67 -75 79 82 0
-67 75 79 -82 0
67 75 79 82 0
67 -75 79 -82 0
67 -75 -79 82 0
67 75 -79 -82 0
-67 75 -83 0
-67 82 -83 0
-67 -75 -82 83 0
67 75 82 -83 0
67 -75 83 0
67 -82 83 0
-68 76 -80 83 0
-68 -76 -80 -83 0
-68 -76 80 83 0
-68 76 80 -83 0
68 76 80 83 0
68 -76 80 -83 0
68 -76 -80 83 0
68 76 -80 -83 0
-68 76 -84 0
-68 83 -84 0
-68 -76 -83 84 0
68 76 83 -84 0
68 -76 84 0
68 -83 84 0
-69 77 -81 84 0
-69 -77 -81 -84 0
-69 -77 81 84 0
-69 77 81 -84 0
69 77 81 84 0
69 -77 81 -84 0
69 -77 -81 84 0
69 77 -81 -84 0
-1 -69 77 0
-1 -69 84 0
1 -69 -77 -84 0
-1 69 77 84 0
1 69 -77 0
1 69 -84 0
-1 -85 -86 0
87 0
88 0
89 0
90 0
-85 87 91 0
-87 -91 0
85 -91 0
-85 88 92 0
-88 -92 0
85 -92 0
-85 89 93 0
-89 -93 0
85 -93 0
-85 90 94 0
-90 -94 0
85 -94 0
-74 85 95 0
74 -95 0
-85 -95 0
-75 85 96 0
75 -96 0
-85 -96 0
-76 85 97 0
76 -97 0
-85 -97 0
-77 85 98 0
77 -98 0
-85 -98 0
91 95 -99 0
-91 99 0
-95 99 0
92 96 -100 0
-92 100 0
-96 100 0
93 97 -101 0
-93 101 0
-97 101 0
94 98 -102 0
-94 102 0
-98 102 0
1 -87 99 -103 0
-1 87 99 -103 0
1 87 99 103 0
-1 -87 99 103 0
1 -87 -99 103 0
-1 87 -99 103 0
1 87 -99 -103 0
-1 -87 -99 -103 0
-87 99 -107 0
1 99 -107 0
-1 87 99 107 0
1 -87 -99 -107 0
87 -99 107 0
-1 -99 107 0
-88 100 -104 107 0
88 100 -104 -107 0
88 100 104 107 0
-88 100 104 -107 0
-88 -100 104 107 0
88 -100 104 -107 0
88 -100 -104 107 0
-88 -100 -104 -107 0
-88 100 -108 0
100 107 -108 0
88 100 -107 108 0
-88 -100 107 -108 0
88 -100 108 0
-100 -107 108 0
-89 101 -105 108 0
89 101 -105 -108 0
89 101 105 108 0
-89 101 105 -108 0
-89 -101 105 108 0
89 -101 105 -108 0
89 -101 -105 108 0
-89 -101 -105 -108 0
-89 101 -109 0
101 108 -109 0
89 101 -108 109 0
-89 -101 108 -109 0
89 -101 109 0
-101 -108 109 0
-90 102 -106 109 0
90 102 -106 -109 0
90 102 106 109 0
-90 102 106 -109 0
-90 -102 106 109 0
90 -102 106 -109 0
90 -102 -106 109 0
-90 -102 -106 -109 0
-1 -90 102 0
-1 102 109 0
1 90 102 -109 0
-1 -90 -102 109 0
1 90 -102 0
1 -102 -109 0
-86 87 110 0
-87 -110 0
86 -110 0
-86 88 111 0
-88 -111 0
86 -111 0
-86 89 112 0
-89 -112 0
86 -112 0
-86 90 113 0
-90 -113 0
86 -113 0
-74 86 114 0
74 -114 0
-86 -114 0
-75 86 115 0
75 -115 0
-86 -115 0
-76 86 116 0
76 -116 0
-86 -116 0
-77 86 117 0
77 -117 0
-86 -117 0
110 114 -118 0
-110 118 0
-114 118 0
111 115 -119 0
-111 119 0
-115 119 0
112 116 -120 0
-112 120 0
-116 120 0
113 117 -121 0
-113 121 0
-117 121 0
1 103 118 -122 0
-1 103 -118 -122 0
1 103 -118 122 0
-1 103 118 122 0
1 -103 118 122 0
-1 -103 -118 122 0
1 -103 -118 -122 0
-1 -103 118 -122 0
103 118 -126 0
1 103 -126 0
-1 103 -118 126 0
1 -103 118 -126 0
-103 -118 126 0
-1 -103 126 0
104 119 -123 126 0
104 -119 -123 -126 0
104 -119 123 126 0
104 119 123 -126 0
-104 119 123 126 0
-104 -119 123 -126 0
-104 -119 -123 126 0
-104 119 -123 -126 0
104 119 -127 0
104 126 -127 0
104 -119 -126 127 0
-104 119 126 -127 0
-104 -119 127 0
-104 -126 127 0
105 120 -124 127 0
105 -120 -124 -127 0
105 -120 124 127 0
105 120 124 -127 0
-105 120 124 127 0
-105 -120 124 -127 0
-105 -120 -124 127 0
-105 120 -124 -127 0
105 120 -128 0
105 127 -128 0
105 -120 -127 128 0
-105 120 127 -128 0
-105 -120 128 0
-105 -127 128 0
106 121 -125 128 0
106 -121 -125 -128 0
106 -121 125 128 0
106 121 125 -128 0
-106 121 125 128 0
-106 -121 125 -128 0
-106 -121 -125 128 0
-106 121 -125 -128 0
-1 106 121 0
-1 106 128 0
1 106 -121 -128 0
-1 -106 121 128 0
1 -106 -121 0
1 -106 -128 0
74 122 -129 0
-74 -122 -129 0
-74 122 129 0
74 -122 129 0
75 123 -130 0
-75 -123 -130 0
-75 123 130 0
75 -123 130 0
76 124 -131 0
-76 -124 -131 0
-76 124 131 0
76 -124 131 0
77 125 -132 0
-77 -125 -132 0
-77 125 132 0
77 -125 132 0
-1 129 130 131 132 0
1 -129 0
1 -130 0
1 -131 0
1 -132 0
-85 87 133 0
-87 -133 0
85 -133 0
-85 88 134 0
-88 -134 0
85 -134 0
-85 89 135 0
-89 -135 0
85 -135 0
-85 90 136 0
-90 -136 0
85 -136 0
-66 85 137 0
66 -137 0
-85 -137 0
-67 85 138 0
67 -138 0
-85 -138 0
-68 85 139 0
68 -139 0
-85 -139 0
-69 85 140 0
69 -140 0
-85 -140 0
133 137 -141 0
-133 141 0
-137 141 0
134 138 -142 0
-134 142 0
-138 142 0
135 139 -143 0
-135 143 0
-139 143 0
136 140 -144 0
-136 144 0
-140 144 0
1 -87 141 -145 0
-1 87 141 -145 0
1 87 141 145 0
-1 -87 141 145 0
1 -87 -141 145 0
-1 87 -141 145 0
1 87 -141 -145 0
-1 -87 -141 -145 0
-87 141 -149 0
1 141 -149 0
-1 87 141 149 0
1 -87 -141 -149 0
87 -141 149 0
-1 -141 149 0
-88 142 -146 149 0
88 142 -146 -149 0
88 142 146 149 0
-88 142 146 -149 0
-88 -142 146 149 0
88 -142 146 -149 0
88 -142 -146 149 0
-88 -142 -146 -149 0
-88 142 -150 0
142 149 -150 0
88 142 -149 150 0
-88 -142 149 -150 0
88 -142 150 0
-142 -149 150 0
-89 143 -147 150 0
89 143 -147 -150 0
89 143 147 150 0
-89 143 147 -150 0
-89 -143 147 150 0
89 -143 147 -150 0
89 -143 -147 150 0
-89 -143 -147 -150 0
-89 143 -151 0
143 150 -151 0
89 143 -150 151 0
-89 -143 150 -151 0
89 -143 151 0
-143 -150 151 0
-90 144 -148 151 0
90 144 -148 -151 0
90 144 148 151 0
-90 144 148 -151 0
-90 -144 148 151 0
90 -144 148 -151 0
90 -144 -148 151 0
-90 -144 -148 -151 0
-1 -90 144 0
-1 144 151 0
1 90 144 -151 0
-1 -90 -144 151 0
1 90 -144 0
1 -144 -151 0
-86 87 152 0
-87 -152 0
86 -152 0
-86 88 153 0
-88 -153 0
86 -153 0
-86 89 154 0
-89 -154 0
86 -154 0
-86 90 155 0
-90 -155 0
86 -155 0
-78 86 156 0
78 -156 0
-86 -156 0
-79 86 157 0
79 -157 0
-86 -157 0
-80 86 158 0
80 -158 0
-86 -158 0
-81 86 159 0
81 -159 0
-86 -159 0
152 156 -160 0
-152 160 0
-156 160 0
153 157 -161 0
-153 161 0
-157 161 0
154 158 -162 0
-154 162 0
-158 162 0
155 159 -163 0
-155 163 0
-159 163 0
1 145 160 -164 0
-1 145 -160 -164 0
1 145 -160 164 0
-1 145 160 164 0
1 -145 160 164 0
-1 -145 -160 164 0
1 -145 -160 -164 0
-1 -145 160 -164 0
145 160 -168 0
1 145 -168 0
-1 145 -160 168 0
1 -145 160 -168 0
-145 -160 168 0
-1 -145 168 0
146 161 -165 168 0
146 -161 -165 -168 0
146 -161 165 168 0
146 161 165 -168 0
-146 161 165 168 0
-146 -161 165 -168 0
-146 -161 -165 168 0
-146 161 -165 -168 0
146 161 -169 0
146 168 -169 0
146 -161 -168 169 0
-146 161 168 -169 0
-146 -161 169 0
-146 -168 169 0
147 162 -166 169 0
147 -162 -166 -169 0
147 -162 166 169 0
147 162 166 -169 0
-147 162 166 169 0
-147 -162 166 -169 0
-147 -162 -166 169 0
-147 162 -166 -169 0
147 162 -170 0
147 169 -170 0
147 -162 -169 170 0
-147 162 169 -170 0
-147 -162 170 0
-147 -169 170 0
148 163 -167 170 0
148 -163 -167 -170 0
148 -163 167 170 0
148 163 167 -170 0
-148 163 167 170 0
-148 -163 167 -170 0
-148 -163 -167 170 0
-148 163 -167 -170 0
-1 148 163 0
-1 148 170 0
1 148 -163 -170 0
-1 -148 163 170 0
1 -148 -163 0
1 -148 -170 0
74 164 -171 0
-74 -164 -171 0
-74 164 171 0
74 -164 171 0
75 165 -172 0
-75 -165 -172 0
-75 165 172 0
75 -165 172 0
76 166 -173 0
-76 -166 -173 0
-76 166 173 0
76 -166 173 0
77 167 -174 0
-77 -167 -174 0
-77 167 174 0
77 -167 174 0
-1 171 172 173 174 0
1 -171 0
1 -172 0
1 -173 0
1 -174 0
1 2 -3 -4 5 -6 7 -8 9 10 -11 -12 13 14 15 -16 17 -18 19 20 -21 22 -23 24 25 -26 -27 -28 29 30 31 32 33 34 35 36 37 38 39 40 41 42 -43 -44 45 46 -47 48 -49 50 -51 52 53 54 55 -56 57 -58 59 60 61 62 63 64 65 -66 67 68 69 -70 71 -72 -73 -74 75 76 77 -78 -79 -80 -81 82 83 84 85 -86 -87 -88 -89 -90 91 92 93 94 -95 96 97 98 -99 100 101 102 -103 104 105 106 107 108 109 110 111 112 113 114 115 116 117 118 119 120 121 -122 123 124 125 126 127 128 129 130 131 132 133 134 135 136 -137 138 139 140 -141 142 143 144 -145 146 147 148 149 150 151 152 153 154 155 156 157 158 159 160 161 162 163 -164 165 166 167 168 169 170 171 172 173 174 0
1 -2 3 -4 5 6 -7 -8 9 10 -11 -12 13 14 -15 -16 17 18 -19 20 -21 22 -23 24 25 -26 -27 -28 29 30 31 -32 33 -34 35 36 37 38 39 40 41 42 43 -44 45 -46 47 48 -49 50 -51 52 53 54 55 56 57 58 59 60 61 62 63 64 65 -66 -67 -68 -69 -70 -71 72 73 -74 75 76 77 -78 79 80 81 82 83 84 -85 86 -87 -88 -89 -90 91 92 93 94 95 96 97 98 99 100 101 102 103 104 105 106 107 108 109 110 111 112 113 -114 115 116 117 -118 119 120 121 -122 123 124 125 126 127 128 129 130 131 132 133 134 135 136 137 138 139 140 141 142 143 144 145 146 147 148 149 150 151 152 153 154 155 -156 157 158 159 -160 161 162 163 -164 165 166 167 168 169 170 171 172 173 174 0
1 -2 -3 4 -5 6 -7 8 -9 10 -11 -12 13 14 15 -16 17 -18 19 20 21 22 23 24 25 -26 -27 -28 29 30 -31 -32 33 34 -35 36 -37 38 -39 40 41 42 43 -44 45 -46 47 48 49 50 51 52 53 54 55 56 57 58 59 60 -61 62 -63 64 65 -66 67 68 69 -70 -71 -72 -73 -74 75 76 77 -78 -79 -80 -81 82 83 84 85 -86 -87 -88 -89 -90 91 92 93 94 -95 96 97 98 -99 100 101 102 -103 104 105 106 107 108 109 110 111 112 113 114 115 116 117 118 119 120 121 -122 123 124 125 126 127 128 129 130 131 132 133 134 135 136 -137 138 139 140 -141 142 143 144 -145 146 147 148 149 150 151 152 153 154 155 156 157 158 159 160 161 162 163 -164 165 166 167 168 169 170 171 172 173 174 0
1 2 -3 4 5 -6 7 8 9 10 -11 -12 13 14 15 -16 17 -18 19 20 21 22 -23 24 25 -26 -27 -28 29 30 31 32 33 34 35 36 -37 38 39 40 41 -42 -43 -44 45 46 -47 48 49 -50 -51 52 53 54 55 -56 57 -58 59 60 -61 62 63 64 65 -66 67 68 69 -70 71 -72 -73 -74 75 76 77 -78 -79 -80 -81 82 83 84 85 -86 -87 -88 -89 -90 91 92 93 94 -95 96 97 98 -99 100 101 102 -103 104 105 106 107 108 109 110 111 112 113 114 115 116 117 118 119 120 121 -122 123 124 125 126 127 128 129 130 131 132 133 134 135 136 -137 138 139 140 -141 142 143 144 -145 146 147 148 149 150 151 152 153 154 155 156 157 158 159 160 161 162 163 -164 165 166 167 168 169 170 171 172 173 174 0
1 2 -3 4 -5 -6 -7 8 -9 10 -11 -12 13 14 15 -16 17 -18 19 20 21 22 23 24 25 -26 -27 -28 29 30 31 32 33 34 35 36 -37 38 -39 40 41 42 43 -44 45 -46 47 48 49 50 51 52 53 54 -55 -56 57 58 -59 60 -61 62 -63 64 65 -66 -67 -68 -69 -70 71 72 73 -74 75 76 77 -78 79 80 81 82 83 84 -85 86 -87 -88 -89 -90 91 92 93 94 95 96 97 98 99 100 101 102 103 104 105 106 107 108 109 110 111 112 113 -114 115 116 117 -118 119 120 121 -122 123 124 125 126 127 128 129 130 131 132 133 134 135 136 137 138 139 140 141 142 143 144 145 146 147 148 149 150 151 152 153 154 155 -156 157 158 159 -160 161 162 163 -164 165 166 167 168 169 170 171 172 173 174 0
1 2 3 4 5 -6 -7 -8 -9 10 -11 -12 13 -14 -15 -16 17 18 -19 20 21 -22 -23 24 25 -26 -27 -28 29 30 31 32 33 -34 35 36 -37 38 39 40 41 42 43 -44 45 -46 47 48 -49 50 51 52 53 -54 -55 -56 57 58 -59 60 61 -62 -63 64 65 -66 67 68 69 -70 71 72 73 -74 75 76 77 -78 -79 -80 -81 82 83 84 85 -86 -87 -88 -89 -90 91 92 93 94 -95 96 97 98 -99 100 101 102 -103 104 105 106 107 108 109 110 111 112 113 114 115 116 117 118 119 120 121 -122 123 124 125 126 127 128 129 130 131 132 133 134 135 136 -137 138 139 140 -141 142 143 144 -145 146 147 148 149 150 151 152 153 154 155 156 157 158 159 160 161 162 163 -164 165 166 167 168 169 170 171 172 173 174 0
1 -2 -3 4 5 6 7 -8 9 10 -11 -12 13 14 15 -16 17 -18 19 20 21 22 -23 24 25 -26 -27 -28 29 30 -31 -32 33 34 -35 36 -37 38 39 40 41 42 -43 -44 45 46 -47 48 -49 50 -51 52 53 54 55 56 57 -58 59 60 61 62 63 64 65 -66 -67 -68 -69 -70 -71 -72 73 -74 75 76 77 -78 79 80 81 82 83 84 -85 86 -87 -88 -89 -90 91 92 93 94 95 96 97 98 99 100 101 102 103 104 105 106 107 108 109 110 111 112 113 -114 115 116 117 -118 119 120 121 -122 123 124 125 126 127 128 129 130 131 132 133 134 135 136 137 138 139 140 141 142 143 144 145 146 147 148 149 150 151 152 153 154 155 -156 157 158 159 -160 161 162 163 -164 165 166 167 168 169 170 171 172 173 174 0
1 -2 -3 4 5 6 -7 8 9 10 -11 -12 13 14 15 -16 17 -18 19 20 21 22 -23 24 25 -26 -27 -28 29 30 -31 -32 33 34 -35 36 -37 38 39 40 41 42 43 -44 45 -46 47 48 49 50 -51 52 53 54 55 56 57 58 59 60 -61 62 63 64 65 -66 67 68 69 -70 -71 -72 -73 -74 75 76 77 -78 -79 -80 -81 82 83 84 85 -86 -87 -88 -89 -90 91 92 93 94 -95 96 97 98 -99 100 101 102 -103 104 105 106 107 108 109 110 111 112 113 114 115 116 117 118 119 120 121 -122 123 124 125 126 127 128 129 130 131 132 133 134 135 136 -137 138 139 140 -141 142 143 144 -145 146 147 148 149 150 151 152 153 154 155 156 157 158 159 160 161 162 163 -164 165 166 167 168 169 170 171 172 173 174 0
1 2 -3 -4 -5 -6 7 -8 -9 10 -11 -12 13 14 15 -16 17 -18 19 20 -21 22 23 24 25 -26 -27 -28 29 30 31 32 33 34 35 36 37 38 -39 40 41 42 -43 -44 45 46 -47 48 -49 50 51 52 53 54 55 -56 57 -58 59 60 61 62 -63 64 65 -66 67 68 69 -70 71 -72 -73 -74 75 76 77 -78 -79 -80 -81 82 83 84 85 -86 -87 -88 -89 -90 91 92 93 94 -95 96 97 98 -99 100 101 102 -103 104 105 106 107 108 109 110 111 112 113 114 115 116 117 118 119 120 121 -122 123 124 125 126 127 128 129 130 131 132 133 134 135 136 -137 138 139 140 -141 142 143 144 -145 146 147 148 149 150 151 152 153 154 155 156 157 158 159 160 161 162 163 -164 165 166 167 168 169 170 171 172 173 174 0
1 -2 -3 -4 -5 6 7 8 9 10 -11 -12 13 14 15 -16 17 -18 19 20 -21 22 23 24 25 -26 -27 -28 29 -30 -31 -32 33 34 -35 36 37 -38 -39 40 41 -42 -43 -44 45 46 -47 48 49 -50 -51 52 53 54 55 56 57 -58 59 60 -61 62 63 64 65 -66 -67 -68 -69 -70 -71 -72 -73 -74 75 76 77 -78 79 80 81 82 83 84 -85 86 -87 -88 -89 -90 91 92 93 94 95 96 97 98 99 100 101 102 103 104 105 106 107 108 109 110 111 112 113 -114 115 116 117 -118 119 120 121 -122 123 124 125 126 127 128 129 130 131 132 133 134 135 136 137 138 139 140 141 142 143 144 145 146 147 148 149 150 151 152 153 154 155 -156 157 158 159 -160 161 162 163 -164 165 166 167 168 169 170 171 172 173 174 0
1 -2 3 -4 -5 6 7 -8 -9 10 -11 -12 13 14 -15 -16 17 18 -19 20 -21 22 23 24 25 -26 -27 -28 29 30 31 -32 33 -34 35 36 37 38 -39 40 41 42 -43 -44 45 46 -47 48 -49 50 51 52 53 54 55 56 57 -58 59 60 61 62 -63 64 65 -66 67 68 69 -70 -71 -72 -73 -74 75 76 77 -78 -79 -80 -81 82 83 84 85 -86 -87 -88 -89 -90 91 92 93 94 -95 96 97 98 -99 100 101 102 -103 104 105 106 107 108 109 110 111 112 113 114 115 116 117 118 119 120 121 -122 123 124 125 126 127 128 129 130 131 132 133 134 135 136 -137 138 139 140 -141 142 143 144 -145 146 147 148 149 150 151 152 153 154 155 156 157 158 159 160 161 162 163 -164 165 166 167 168 169 170 171 172 173 174 0
1 -2 3 4 5 6 7 8 9 10 -11 -12 13 -14 -15 -16 17 18 -19 20 21 -22 -23 24 25 -26 -27 -28 29 30 31 -32 33 -34 35 36 -37 38 39 40 41 -42 -43 -44 45 46 -47 48 49 -50 -51 52 53 54 55 56 57 -58 59 60 -61 62 63 64 65 -66 67 68 69 -70 -71 -72 -73 -74 75 76 77 -78 -79 -80 -81 82 83 84 85 -86 -87 -88 -89 -90 91 92 93 94 -95 96 97 98 -99 100 101 102 -103 104 105 106 107 108 109 110 111 112 113 114 115 116 117 118 119 120 121 -122 123 124 125 126 127 128 129 130 131 132 133 134 135 136 -137 138 139 140 -141 142 143 144 -145 146 147 148 149 150 151 152 153 154 155 156 157 158 159 160 161 162 163 -164 165 166 167 168 169 170 171 172 173 174 0
1 -2 -3 4 -5 6 7 -8 -9 10 -11 -12 13 14 15 -16 17 -18 19 20 21 22 23 24 25 -26 -27 -28 29 30 -31 -32 33 34 -35 36 -37 38 -39 40 41 42 -43 -44 45 46 -47 48 -49 50 51 52 53 54 55 56 57 -58 59 60 61 62 -63 64 65 -66 -67 -68 -69 -70 -71 -72 73 -74 75 76 77 -78 79 80 81 82 83 84 -85 86 -87 -88 -89 -90 91 92 93 94 95 96 97 98 99 100 101 102 103 104 105 106 107 108 109 110 111 112 113 -114 115 116 117 -118 119 120 121 -122 123 124 125 126 127 128 129 130 131 132 133 134 135 136 137 138 139 140 141 142 143 144 145 146 147 148 149 150 151 152 153 154 155 -156 157 158 159 -160 161 162 163 -164 165 166 167 168 169 170 171 172 173 174 0
1 2 3 -4 -5 -6 7 -8 -9 10 -11 -12 13 14 -15 -16 17 18 -19 20 -21 22 23 24 25 -26 -27 -28 29 30 31 32 33 -34 35 36 37 38 -39 40 41 42 -43 -44 45 46 -47 48 -49 50 51 52 53 54 55 -56 57 -58 59 60 61 62 -63 64 65 -66 -67 -68 -69 -70 71 72 73 -74 75 76 77 -78 79 80 81 82 83 84 -85 86 -87 -88 -89 -90 91 92 93 94 95 96 97 98 99 100 101 102 103 104 105 106 107 108 109 110 111 112 113 -114 115 116 117 -118 119 120 121 -122 123 124 125 126 127 128 129 130 131 132 133 134 135 136 137 138 139 140 141 142 143 144 145 146 147 148 149 150 151 152 153 154 155 -156 157 158 159 -160 161 162 163 -164 165 166 167 168 169 170 171 172 173 174 0
1 2 -3 4 5 -6 -7 8 9 10 -11 -12 13 14 15 -16 17 -18 19 20 21 22 -23 24 25 -26 -27 -28 29 30 31 32 33 34 35 36 -37 38 39 40 41 42 43 -44 45 -46 47 48 49 50 -51 52 53 54 -55 -56 57 58 -59 60 -61 62 63 64 65 -66 -67 -68 -69 -70 71 72 73 -74 75 76 77 -78 79 80 81 82 83 84 -85 86 -87 -88 -89 -90 91 92 93 94 95 96 97 98 99 100 101 102 103 104 105 106 107 108 109 110 111 112 113 -114 115 116 117 -118 119 120 121 -122 123 124 125 126 127 128 129 130 131 132 133 134 135 136 137 138 139 140 141 142 143 144 145 146 147 148 149 150 151 152 153 154 155 -156 157 158 159 -160 161 162 163 -164 165 166 167 168 169 170 171 172 173 174 0
1 2 3 -4 5 -6 -7 8 9 10 -11 -12 13 14 -15 -16 17 18 -19 20 -21 22 -23 24 25 -26 -27 -28 29 30 31 32 33 -34 35 36 37 38 39 40 41 42 43 -44 45 -46 47 48 49 50 -51 52 53 54 -55 -56 57 58 -59 60 -61 62 63 64 65 -66 67 68 69 -70 71 72 -73 -74 75 76 77 -78 -79 -80 -81 82 83 84 85 -86 -87 -88 -89 -90 91 92 93 94 -95 96 97 98 -99 100 101 102 -103 104 105 106 107 108 109 110 111 112 113 114 115 116 117 118 119 120 121 -122 123 124 125 126 127 128 129 130 131 132 133 134 135 136 -137 138 139 140 -141 142 143 144 -145 146 147 148 149 150 151 152 153 154 155 156 157 158 159 160 161 162 163 -164 165 166 167 168 169 170 171 172 173 174 0
1 -2 -3 -4 -5 6 -7 -8 -9 10 -11 -12 13 14 15 -16 17 -18 19 20 -21 22 23 24 25 -26 -27 -28 29 -30 -31 -32 33 34 -35 36 37 -38 -39 40 41 42 43 -44 45 -46 47 48 -49 50 51 52 53 54 55 56 57 58 59 60 61 62 -63 64 65 -66 67 68 69 -70 -71 -72 -73 -74 75 76 77 -78 -79 -80 -81 82 83 84 85 -86 -87 -88 -89 -90 91 92 93 94 -95 96 97 98 -99 100 101 102 -103 104 105 106 107 108 109 110 111 112 113 114 115 116 117 118 119 120 121 -122 123 124 125 126 127 128 129 130 131 132 133 134 135 136 -137 138 139 140 -141 142 143 144 -145 146 147 148 149 150 151 152 153 154 155 156 157 158 159 160 161 162 163 -164 165 166 167 168 169 170 171 172 173 174 0
1 2 -3 -4 -5 -6 -7 -8 -9 10 -11 -12 13 14 15 -16 17 -18 19 20 -21 22 23 24 25 -26 -27 -28 29 30 31 32 33 34 35 36 37 38 -39 40 41 42 43 -44 45 -46 47 48 -49 50 51 52 53 -54 -55 -56 57 58 -59 60 61 -62 -63 64 65 -66 -67 -68 -69 -70 71 72 73 -74 75 76 77 -78 79 80 81 82 83 84 -85 86 -87 -88 -89 -90 91 92 93 94 95 96 97 98 99 100 101 102 103 104 105 106 107 108 109 110 111 112 113 -114 115 116 117 -118 119 120 121 -122 123 124 125 126 127 128 129 130 131 132 133 134 135 136 137 138 139 140 141 142 143 144 145 146 147 148 149 150 151 152 153 154 155 -156 157 158 159 -160 161 162 163 -164 165 166 167 168 169 170 171 172 173 174 0
1 2 3 -4 -5 -6 -7 8 -9 10 -11 -12 13 14 -15 -16 17 18 -19 20 -21 22 23 24 25 -26 -27 -28 29 30 31 32 33 -34 35 36 37 38 -39 40 41 42 43 -44 45 -46 47 48 49 50 51 52 53 54 -55 -56 57 58 -59 60 -61 62 -63 64 65 -66 67 68 69 -70 71 72 -73 -74 75 76 77 -78 -79 -80 -81 82 83 84 85 -86 -87 -88 -89 -90 91 92 93 94 -95 96 97 98 -99 100 101 102 -103 104 105 106 107 108 109 110 111 112 113 114 115 116 117 118 119 120 121 -122 123 124 125 126 127 128 129 130 131 132 133 134 135 136 -137 138 139 140 -141 142 143 144 -145 146 147 148 149 150 151 152 153 154 155 156 157 158 159 160 161 162 163 -164 165 166 167 168 169 170 171 172 173 174 0
1 -2 3 -4 5 6 7 -8 9 10 -11 -12 13 14 -15 -16 17 18 -19 20 -21 22 -23 24 25 -26 -27 -28 29 30 31 -32 33 -34 35 36 37 38 39 40 41 42 -43 -44 45 46 -47 48 -49 50 -51 52 53 54 55 56 57 -58 59 60 61 62 63 64 65 -66 67 68 69 -70 -71 -72 -73 -74 75 76 77 -78 -79 -80 -81 82 83 84 85 -86 -87 -88 -89 -90 91 92 93 94 -95 96 97 98 -99 100 101 102 -103 104 105 106 107 108 109 110 111 112 113 114 115 116 117 118 119 120 121 -122 123 124 125 126 127 128 129 130 131 132 133 134 135 136 -137 138 139 140 -141 142 143 144 -145 146 147 148 149 150 151 152 153 154 155 156 157 158 159 160 161 162 163 -164 165 166 167 168 169 170 171 172 173 174 0
1 -2 3 -4 -5 6 -7 -8 -9 10 -11 -12 13 14 -15 -16 17 18 -19 20 -21 22 23 24 25 -26 -27 -28 29 30 31 -32 33 -34 35 36 37 38 -39 40 41 42 43 -44 45 -46 47 48 -49 50 51 52 53 54 55 56 57 58 59 60 61 62 -63 64 65 -66 -67 -68 -69 -70 -71 72 73 -74 75 76 77 -78 79 80 81 82 83 84 -85 86 -87 -88 -89 -90 91 92 93 94 95 96 97 98 99 100 101 102 103 104 105 106 107 108 109 110 111 112 113 -114 115 116 117 -118 119 120 121 -122 123 124 125 126 127 128 129 130 131 132 133 134 135 136 137 138 139 140 141 142 143 144 145 146 147 148 149 150 151 152 153 154 155 -156 157 158 159 -160 161 162 163 -164 165 166 167 168 169 170 171 172 173 174 0
1 2 3 4 5 -6 7 8 9 10 -11 -12 13 -14 -15 -16 17 18 -19 20 21 -22 -23 24 25 -26 -27 -28 29 30 31 32 33 -34 35 36 -37 38 39 40 41 -42 -43 -44 45 46 -47 48 49 -50 -51 52 53 54 55 -56 57 -58 59 60 -61 62 63 64 65 -66 -67 -68 -69 -70 71 72 73 -74 75 76 77 -78 79 80 81 82 83 84 -85 86 -87 -88 -89 -90 91 92 93 94 95 96 97 98 99 100 101 102 103 104 105 106 107 108 109 110 111 112 113 -114 115 116 117 -118 119 120 121 -122 123 124 125 126 127 128 129 130 131 132 133 134 135 136 137 138 139 140 141 142 143 144 145 146 147 148 149 150 151 152 153 154 155 -156 157 158 159 -160 161 162 163 -164 165 166 167 168 169 170 171 172 173 174 0
1 -2 3 4 5 6 -7 8 9 10 -11 -12 13 -14 -15 -16 17 18 -19 20 21 -22 -23 24 25 -26 -27 -28 29 30 31 -32 33 -34 35 36 -37 38 39 40 41 42 43 -44 45 -46 47 48 49 50 -51 52 53 54 55 56 57 58 59 60 -61 62 63 64 65 -66 -67 -68 -69 -70 -71 72 73 -74 75 76 77 -78 79 80 81 82 83 84 -85 86 -87 -88 -89 -90 91 92 93 94 95 96 97 98 99 100 101 102 103 104 105 106 107 108 109 110 111 112 113 -114 115 116 117 -118 119 120 121 -122 123 124 125 126 127 128 129 130 131 132 133 134 135 136 137 138 139 140 141 142 143 144 145 146 147 148 149 150 151 152 153 154 155 -156 157 158 159 -160 161 162 163 -164 165 166 167 168 169 170 171 172 173 174 0
1 2 3 -4 5 -6 7 -8 9 10 -11 -12 13 14 -15 -16 17 18 -19 20 -21 22 -23 24 25 -26 -27 -28 29 30 31 32 33 -34 35 36 37 38 39 40 41 42 -43 -44 45 46 -47 48 -49 50 -51 52 53 54 55 -56 57 -58 59 60 61 62 63 64 65 -66 -67 -68 -69 -70 71 72 73 -74 75 76 77 -78 79 80 81 82 83 84 -85 86 -87 -88 -89 -90 91 92 93 94 95 96 97 98 99 100 101 102 103 104 105 106 107 108 109 110 111 112 113 -114 115 116 117 -118 119 120 121 -122 123 124 125 126 127 128 129 130 131 132 133 134 135 136 137 138 139 140 141 142 143 144 145 146 147 148 149 150 151 152 153 154 155 -156 157 158 159 -160 161 162 163 -164 165 166 167 168 169 170 171 172 173 174 0
